NAME : kroC100-C-3-1-a__cluster__24253.tour
COMMENT : Length = 24253.000
COMMENT : Generated by compare_sota_instances.py for cluster
TYPE : TOUR
DIMENSION : 100
TOUR_SECTION
45
97
87
96
52
11
84
48
66
44
63
51
16
37
29
18
49
93
19
99
92
10
14
36
57
74
33
81
100
69
60
4
12
40
85
53
1
46
24
32
7
82
78
9
26
61
27
15
79
13
65
31
67
55
20
64
42
47
6
54
75
22
8
17
25
90
34
58
98
88
28
39
38
71
72
83
62
50
56
5
43
86
95
91
94
76
70
21
23
68
35
2
80
77
30
41
89
59
3
73
-1
EOF
